c
c start with comments
c
p cnf 29 15
-30 5 -4 -6 0
-8 10 -24 -22 2 0
1 24 29 9 29 0
-27 -16 15 6 -12 0
-13 11 7 -10 9 0
-21 -25 -31 0
-27 -13 18 0
20 -22 12 -19 -29 0
3 -1 -7 0
-5 -21 22 0
-31 -30 -27 0
-12 -16 -11 -15 6 14 0
-17 8 -20 -21 0
3 -23 -17 -23 0
-3 -10 21 0